32      4       
10      10      10      10      
0       0       0       0       0       9       2       4       5       6       8       9       10      11      12      
6       1       1       0       1       2       3       18      
9       0       3       1       1       9       7       19      20      23      25      26      28      30      31      
9       4       5       0       5       8       14      15      17      21      25      27      29      31      
1       4       3       5       0       8       17      21      23      25      26      27      28      30      
7       2       6       0       3       5       16      22      24      25      26      
3       5       4       0       1       4       13      21      27      29      
2       3       4       7       0       4       17      18      23      31      
5       0       3       2       7       5       21      23      24      27      29      
2       0       4       4       4       4       22      26      27      28      
3       0       4       2       2       4       21      22      25      30      
4       5       0       10      6       3       22      25      28      
9       5       3       4       0       2       17      24      
3       7       4       0       6       2       22      26      
4       4       0       5       2       2       23      24      
7       3       0       7       3       2       21      23      
3       3       0       3       4       1       22      
4       2       2       0       3       1       21      
4       2       3       3       0       1       21      
1       1       5       5       0       1       21      
8       7       0       3       3       1       32      
4       0       6       3       8       1       32      
2       6       4       0       5       1       32      
5       8       0       5       5       1       32      
7       6       0       4       2       1       32      
10      3       4       2       0       1       32      
2       0       6       2       6       1       32      
2       7       0       3       4       1       32      
4       3       4       0       6       1       32      
5       0       6       4       6       1       32      
9       1       4       0       3       1       32      
0       0       0       0       0       0       
